128
3216
1 8
1 12
1 16
1 19
1 23
1 27
1 28
1 31
1 32
1 33
1 37
1 39
1 43
1 44
1 47
1 55
1 57
1 62
1 64
1 65
1 67
1 68
1 70
1 72
1 73
1 74
1 76
1 78
1 79
1 80
1 88
1 90
1 91
1 92
1 97
1 98
1 100
1 102
1 103
1 105
1 108
1 109
1 110
1 114
1 117
1 119
1 120
1 122
1 125
1 128
2 6
2 7
2 8
2 10
2 13
2 14
2 19
2 20
2 22
2 23
2 24
2 25
2 27
2 28
2 30
2 36
2 38
2 41
2 43
2 45
2 46
2 52
2 53
2 56
2 58
2 60
2 61
2 62
2 64
2 66
2 67
2 68
2 69
2 70
2 71
2 73
2 75
2 76
2 82
2 83
2 84
2 86
2 88
2 89
2 91
2 92
2 93
2 94
2 95
2 96
2 99
2 100
2 101
2 106
2 107
2 108
2 110
2 111
2 113
2 114
2 115
2 116
2 118
2 122
2 123
2 126
2 127
2 128
3 4
3 5
3 9
3 11
3 12
3 15
3 16
3 17
3 18
3 21
3 26
3 29
3 32
3 33
3 34
3 35
3 37
3 40
3 42
3 48
3 49
3 50
3 54
3 59
3 63
3 77
3 81
3 85
3 87
3 104
3 121
3 124
4 5
4 9
4 11
4 15
4 17
4 18
4 21
4 26
4 29
4 40
4 42
4 48
4 49
4 50
4 54
4 59
4 63
4 77
4 81
4 85
4 87
4 104
4 112
4 124
5 9
5 11
5 12
5 15
5 16
5 18
5 21
5 26
5 29
5 32
5 33
5 35
5 37
5 40
5 42
5 47
5 48
5 49
5 50
5 54
5 59
5 63
5 74
5 77
5 81
5 85
5 87
5 102
5 104
5 112
5 117
5 121
5 124
6 8
6 10
6 13
6 20
6 23
6 24
6 27
6 28
6 30
6 38
6 41
6 45
6 52
6 53
6 55
6 56
6 57
6 60
6 62
6 64
6 66
6 67
6 68
6 69
6 70
6 71
6 75
6 76
6 84
6 88
6 89
6 91
6 92
6 93
6 95
6 96
6 98
6 103
6 106
6 107
6 108
6 110
6 111
6 113
6 115
6 116
6 122
6 123
6 126
6 127
6 128
7 8
7 10
7 14
7 19
7 20
7 22
7 24
7 25
7 27
7 28
7 30
7 36
7 38
7 39
7 41
7 43
7 45
7 46
7 51
7 52
7 53
7 58
7 61
7 62
7 64
7 65
7 66
7 68
7 69
7 73
7 74
7 75
7 76
7 78
7 79
7 82
7 83
7 86
7 88
7 90
7 91
7 92
7 93
7 94
7 97
7 99
7 100
7 101
7 102
7 105
7 107
7 108
7 110
7 111
7 113
7 114
7 115
7 116
7 117
7 118
7 122
7 123
7 125
7 126
7 127
7 128
8 10
8 13
8 14
8 16
8 19
8 20
8 24
8 25
8 27
8 28
8 30
8 33
8 36
8 38
8 39
8 41
8 43
8 45
8 46
8 51
8 52
8 53
8 55
8 57
8 58
8 61
8 62
8 64
8 65
8 66
8 67
8 68
8 69
8 70
8 71
8 73
8 74
8 75
8 76
8 78
8 79
8 80
8 82
8 83
8 84
8 86
8 88
8 89
8 90
8 91
8 92
8 93
8 94
8 96
8 97
8 98
8 99
8 100
8 101
8 102
8 103
8 105
8 107
8 108
8 109
8 110
8 111
8 113
8 114
8 115
8 116
8 117
8 118
8 122
8 123
8 125
8 126
8 127
8 128
9 11
9 15
9 17
9 18
9 21
9 26
9 29
9 40
9 42
9 48
9 49
9 50
9 54
9 59
9 63
9 77
9 81
9 85
9 87
9 104
9 112
9 124
10 13
10 14
10 19
10 20
10 22
10 23
10 24
10 25
10 27
10 28
10 30
10 36
10 38
10 41
10 43
10 45
10 46
10 52
10 53
10 56
10 58
10 60
10 61
10 62
10 64
10 66
10 68
10 69
10 70
10 71
10 73
10 75
10 76
10 82
10 83
10 84
10 86
10 88
10 89
10 91
10 92
10 93
10 94
10 96
10 99
10 100
10 107
10 110
10 111
10 113
10 114
10 115
10 116
10 118
10 122
10 123
10 126
10 127
10 128
11 17
11 18
11 21
11 26
11 35
11 40
11 42
11 49
11 50
11 59
11 63
11 81
11 85
11 104
11 124
12 16
12 27
12 29
12 31
12 32
12 33
12 35
12 37
12 39
12 44
12 47
12 48
12 55
12 57
12 67
12 72
12 74
12 78
12 79
12 80
12 87
12 90
12 97
12 98
12 102
12 103
12 105
12 108
12 109
12 110
12 112
12 114
12 117
12 119
12 120
12 121
12 125
12 128
13 20
13 23
13 24
13 25
13 27
13 28
13 30
13 38
13 41
13 45
13 52
13 53
13 55
13 56
13 57
13 58
13 60
13 61
13 62
13 64
13 66
13 67
13 68
13 69
13 70
13 71
13 75
13 76
13 82
13 84
13 86
13 88
13 89
13 91
13 92
13 93
13 94
13 95
13 96
13 103
13 106
13 107
13 108
13 111
13 113
13 115
13 116
13 122
13 123
13 126
13 127
13 128
14 19
14 20
14 24
14 25
14 27
14 28
14 30
14 38
14 39
14 43
14 45
14 46
14 51
14 52
14 53
14 58
14 62
14 65
14 66
14 68
14 69
14 73
14 74
14 75
14 76
14 78
14 79
14 82
14 83
14 86
14 88
14 90
14 91
14 92
14 93
14 94
14 97
14 99
14 100
14 101
14 105
14 107
14 108
14 110
14 113
14 114
14 115
14 116
14 117
14 118
14 123
14 125
14 126
14 127
14 128
15 18
15 21
15 26
15 29
15 37
15 40
15 48
15 49
15 54
15 59
15 77
15 104
15 112
15 124
16 19
16 27
16 31
16 32
16 33
16 34
16 35
16 37
16 39
16 43
16 44
16 47
16 48
16 51
16 65
16 73
16 74
16 78
16 79
16 80
16 87
16 90
16 97
16 98
16 100
16 101
16 102
16 105
16 108
16 109
16 110
16 114
16 117
16 120
16 121
16 125
16 128
17 21
17 42
17 49
17 50
17 59
17 63
17 81
17 85
17 104
18 21
18 26
18 29
18 40
18 42
18 48
18 49
18 50
18 54
18 59
18 63
18 77
18 81
18 85
18 87
18 104
18 112
18 124
19 20
19 27
19 28
19 30
19 33
19 34
19 39
19 43
19 45
19 51
19 52
19 58
19 62
19 64
19 65
19 66
19 67
19 68
19 69
19 73
19 74
19 75
19 76
19 78
19 79
19 80
19 83
19 88
19 90
19 91
19 92
19 94
19 97
19 99
19 100
19 101
19 102
19 105
19 107
19 108
19 109
19 110
19 113
19 114
19 115
19 117
19 121
19 122
19 123
19 125
19 126
19 128
20 22
20 24
20 25
20 27
20 28
20 30
20 36
20 38
20 39
20 41
20 43
20 45
20 46
20 52
20 53
20 58
20 61
20 62
20 64
20 66
20 68
20 69
20 71
20 73
20 75
20 76
20 82
20 83
20 84
20 86
20 88
20 89
20 91
20 92
20 93
20 94
20 96
20 99
20 100
20 101
20 107
20 110
20 111
20 113
20 114
20 115
20 116
20 118
20 122
20 123
20 126
20 127
20 128
21 26
21 29
21 40
21 42
21 48
21 49
21 50
21 54
21 59
21 63
21 77
21 81
21 85
21 87
21 104
21 112
21 124
22 24
22 25
22 28
22 30
22 36
22 38
22 41
22 45
22 46
22 52
22 53
22 58
22 61
22 62
22 66
22 68
22 69
22 75
22 82
22 83
22 84
22 86
22 91
22 92
22 93
22 94
22 99
22 107
22 111
22 113
22 115
22 116
22 118
22 123
22 126
22 127
23 24
23 27
23 28
23 41
23 44
23 45
23 52
23 55
23 56
23 57
23 60
23 62
23 64
23 66
23 67
23 68
23 70
23 71
23 72
23 75
23 76
23 84
23 88
23 89
23 91
23 92
23 93
23 95
23 96
23 98
23 103
23 106
23 107
23 108
23 109
23 110
23 111
23 113
23 119
23 122
23 123
23 126
23 127
23 128
24 25
24 27
24 28
24 30
24 36
24 38
24 41
24 43
24 45
24 46
24 52
24 53
24 58
24 60
24 61
24 62
24 64
24 66
24 68
24 69
24 70
24 71
24 73
24 75
24 76
24 82
24 83
24 84
24 86
24 88
24 89
24 91
24 92
24 93
24 94
24 96
24 99
24 100
24 107
24 111
24 113
24 115
24 116
24 118
24 122
24 123
24 126
24 127
24 128
25 27
25 28
25 30
25 36
25 38
25 41
25 43
25 45
25 46
25 52
25 53
25 58
25 61
25 62
25 66
25 68
25 69
25 71
25 73
25 75
25 76
25 82
25 83
25 84
25 86
25 88
25 91
25 92
25 93
25 94
25 96
25 99
25 100
25 107
25 111
25 113
25 115
25 116
25 118
25 123
25 126
25 127
25 128
26 29
26 40
26 42
26 48
26 49
26 50
26 54
26 59
26 63
26 77
26 81
26 85
26 87
26 104
26 112
26 124
27 28
27 30
27 31
27 32
27 33
27 38
27 39
27 41
27 43
27 44
27 45
27 46
27 52
27 53
27 55
27 57
27 58
27 60
27 62
27 64
27 65
27 66
27 67
27 68
27 69
27 70
27 71
27 72
27 73
27 74
27 75
27 76
27 78
27 79
27 80
27 83
27 84
27 88
27 89
27 90
27 91
27 92
27 93
27 94
27 96
27 97
27 98
27 99
27 100
27 101
27 102
27 103
27 105
27 107
27 108
27 109
27 110
27 111
27 113
27 114
27 115
27 116
27 117
27 119
27 120
27 122
27 123
27 125
27 126
27 127
27 128
28 30
28 36
28 38
28 39
28 41
28 43
28 45
28 46
28 52
28 53
28 55
28 58
28 61
28 62
28 64
28 65
28 66
28 67
28 68
28 69
28 70
28 71
28 73
28 74
28 75
28 76
28 78
28 79
28 80
28 82
28 83
28 84
28 86
28 88
28 89
28 90
28 91
28 92
28 93
28 94
28 96
28 97
28 99
28 100
28 101
28 102
28 105
28 107
28 108
28 109
28 110
28 111
28 113
28 114
28 115
28 116
28 117
28 118
28 122
28 123
28 125
28 126
28 127
28 128
29 32
29 37
29 40
29 47
29 48
29 49
29 54
29 59
29 77
29 87
29 104
29 112
29 124
30 36
30 38
30 41
30 43
30 45
30 46
30 52
30 53
30 58
30 60
30 61
30 62
30 64
30 66
30 68
30 69
30 70
30 71
30 73
30 75
30 76
30 82
30 83
30 84
30 86
30 88
30 89
30 91
30 92
30 93
30 94
30 96
30 99
30 100
30 107
30 111
30 113
30 114
30 115
30 116
30 118
30 122
30 123
30 126
30 127
30 128
31 32
31 33
31 37
31 39
31 43
31 44
31 47
31 55
31 57
31 64
31 67
31 70
31 72
31 74
31 76
31 78
31 79
31 80
31 88
31 90
31 97
31 98
31 102
31 103
31 105
31 108
31 109
31 110
31 112
31 114
31 117
31 119
31 120
31 122
31 125
31 128
32 33
32 35
32 37
32 39
32 44
32 47
32 48
32 55
32 57
32 65
32 72
32 74
32 79
32 80
32 87
32 90
32 97
32 98
32 102
32 103
32 105
32 108
32 109
32 110
32 112
32 114
32 117
32 120
32 121
32 128
33 34
33 35
33 37
33 39
33 43
33 44
33 47
33 48
33 51
33 55
33 57
33 62
33 65
33 72
33 73
33 74
33 76
33 78
33 79
33 80
33 87
33 88
33 90
33 91
33 97
33 98
33 100
33 101
33 102
33 103
33 105
33 108
33 109
33 110
33 112
33 114
33 117
33 120
33 121
33 125
33 128
34 35
34 39
34 50
34 51
34 63
34 65
34 73
34 74
34 78
34 81
34 87
34 97
34 101
34 105
34 114
34 117
34 121
34 125
35 37
35 39
35 42
35 47
35 48
35 50
35 51
35 63
35 65
35 74
35 78
35 79
35 80
35 81
35 87
35 90
35 97
35 102
35 105
35 114
35 117
35 121
35 125
36 38
36 41
36 45
36 46
36 52
36 53
36 58
36 61
36 62
36 66
36 68
36 69
36 75
36 82
36 83
36 84
36 86
36 88
36 91
36 92
36 93
36 94
36 96
36 99
36 107
36 111
36 113
36 115
36 116
36 118
36 123
36 126
36 127
37 44
37 47
37 48
37 54
37 55
37 57
37 72
37 74
37 77
37 79
37 80
37 87
37 90
37 98
37 102
37 103
37 105
37 108
37 109
37 110
37 112
37 117
37 119
37 120
38 41
38 43
38 45
38 46
38 52
38 53
38 58
38 60
38 61
38 62
38 66
38 68
38 69
38 71
38 75
38 76
38 82
38 83
38 84
38 86
38 88
38 89
38 91
38 92
38 93
38 94
38 96
38 99
38 100
38 107
38 111
38 113
38 115
38 116
38 118
38 122
38 123
38 126
38 127
38 128
39 43
39 45
39 51
39 52
39 55
39 57
39 62
39 64
39 65
39 66
39 68
39 69
39 73
39 74
39 76
39 78
39 79
39 80
39 83
39 88
39 90
39 91
39 92
39 94
39 97
39 98
39 99
39 100
39 101
39 102
39 103
39 105
39 107
39 108
39 109
39 110
39 113
39 114
39 115
39 117
39 121
39 122
39 123
39 125
39 126
39 128
40 42
40 48
40 49
40 54
40 59
40 77
40 81
40 85
40 104
40 112
40 124
41 43
41 45
41 46
41 52
41 53
41 56
41 58
41 60
41 61
41 62
41 66
41 68
41 69
41 70
41 71
41 75
41 76
41 82
41 83
41 84
41 86
41 88
41 89
41 91
41 92
41 93
41 94
41 96
41 99
41 107
41 111
41 113
41 115
41 116
41 118
41 122
41 123
41 126
41 127
41 128
42 48
42 49
42 50
42 59
42 63
42 81
42 85
42 87
42 104
42 124
43 45
43 46
43 51
43 52
43 53
43 55
43 57
43 58
43 62
43 64
43 65
43 66
43 67
43 68
43 69
43 70
43 71
43 73
43 74
43 75
43 76
43 78
43 79
43 80
43 82
43 83
43 86
43 88
43 90
43 91
43 92
43 93
43 94
43 96
43 97
43 98
43 99
43 100
43 101
43 102
43 103
43 105
43 107
43 108
43 109
43 110
43 111
43 113
43 114
43 115
43 116
43 117
43 118
43 122
43 123
43 125
43 126
43 127
43 128
44 47
44 55
44 57
44 64
44 67
44 70
44 71
44 72
44 74
44 76
44 79
44 80
44 88
44 89
44 90
44 98
44 102
44 103
44 105
44 108
44 109
44 110
44 112
44 114
44 117
44 119
44 120
44 122
44 128
45 46
45 52
45 53
45 58
45 60
45 61
45 62
45 64
45 66
45 68
45 69
45 70
45 71
45 73
45 74
45 75
45 76
45 78
45 79
45 82
45 83
45 84
45 86
45 88
45 89
45 90
45 91
45 92
45 93
45 94
45 96
45 99
45 100
45 101
45 107
45 108
45 110
45 111
45 113
45 114
45 115
45 116
45 118
45 122
45 123
45 125
45 126
45 127
45 128
46 52
46 53
46 58
46 61
46 62
46 66
46 68
46 69
46 73
46 75
46 76
46 82
46 83
46 84
46 86
46 88
46 91
46 92
46 93
46 94
46 96
46 99
46 100
46 107
46 111
46 113
46 115
46 116
46 118
46 123
46 126
46 127
46 128
47 48
47 54
47 55
47 57
47 67
47 72
47 74
47 77
47 79
47 80
47 87
47 90
47 98
47 102
47 103
47 108
47 109
47 110
47 112
47 117
47 119
47 120
48 49
48 54
48 63
48 77
48 81
48 87
48 104
48 112
48 124
49 50
49 54
49 59
49 63
49 77
49 81
49 85
49 104
49 124
50 59
50 63
50 81
50 85
50 87
50 104
50 124
51 62
51 65
51 73
51 74
51 78
51 79
51 80
51 90
51 91
51 97
51 100
51 101
51 102
51 105
51 110
51 114
51 117
51 121
51 125
51 128
52 53
52 55
52 58
52 61
52 62
52 64
52 66
52 67
52 68
52 69
52 70
52 71
52 73
52 74
52 75
52 76
52 78
52 79
52 80
52 82
52 83
52 84
52 86
52 88
52 89
52 90
52 91
52 92
52 93
52 94
52 96
52 97
52 99
52 100
52 101
52 102
52 105
52 107
52 108
52 109
52 110
52 111
52 113
52 114
52 115
52 116
52 117
52 118
52 122
52 123
52 125
52 126
52 127
52 128
53 58
53 61
53 62
53 66
53 68
53 69
53 71
53 73
53 75
53 76
53 82
53 83
53 84
53 86
53 88
53 91
53 92
53 93
53 94
53 96
53 99
53 100
53 107
53 111
53 113
53 114
53 115
53 116
53 118
53 123
53 126
53 127
53 128
54 77
54 87
54 104
54 112
54 124
55 56
55 57
55 60
55 62
55 64
55 67
55 68
55 70
55 71
55 72
55 73
55 74
55 75
55 76
55 78
55 79
55 80
55 88
55 89
55 90
55 91
55 92
55 96
55 97
55 98
55 100
55 102
55 103
55 105
55 107
55 108
55 109
55 110
55 114
55 117
55 119
55 120
55 122
55 127
55 128
56 57
56 60
56 64
56 67
56 70
56 71
56 75
56 76
56 84
56 89
56 93
56 95
56 96
56 106
56 107
56 111
56 113
56 122
56 127
57 60
57 62
57 64
57 67
57 68
57 70
57 71
57 72
57 74
57 76
57 79
57 80
57 88
57 89
57 90
57 91
57 92
57 95
57 96
57 98
57 100
57 102
57 103
57 105
57 107
57 108
57 109
57 110
57 114
57 117
57 119
57 120
57 122
57 127
57 128
58 61
58 62
58 66
58 68
58 69
58 71
58 73
58 75
58 76
58 82
58 83
58 84
58 86
58 88
58 91
58 92
58 93
58 94
58 96
58 99
58 100
58 107
58 111
58 113
58 114
58 115
58 116
58 118
58 123
58 126
58 127
58 128
59 63
59 77
59 81
59 85
59 87
59 104
59 124
60 64
60 67
60 68
60 70
60 71
60 75
60 76
60 84
60 88
60 89
60 92
60 93
60 95
60 96
60 103
60 106
60 107
60 111
60 113
60 122
60 123
60 126
60 127
60 128
61 62
61 66
61 68
61 69
61 71
61 75
61 76
61 82
61 83
61 84
61 86
61 88
61 91
61 92
61 93
61 94
61 96
61 99
61 107
61 111
61 113
61 115
61 116
61 118
61 123
61 126
61 127
62 64
62 65
62 66
62 67
62 68
62 69
62 70
62 71
62 73
62 74
62 75
62 76
62 78
62 79
62 80
62 82
62 83
62 84
62 86
62 88
62 89
62 90
62 91
62 92
62 93
62 94
62 96
62 97
62 98
62 99
62 100
62 101
62 102
62 103
62 105
62 107
62 108
62 109
62 110
62 111
62 113
62 114
62 115
62 116
62 117
62 118
62 122
62 123
62 125
62 126
62 127
62 128
63 81
63 85
63 87
63 104
63 121
63 124
64 66
64 67
64 68
64 69
64 70
64 71
64 72
64 73
64 74
64 75
64 76
64 78
64 79
64 80
64 84
64 88
64 89
64 90
64 91
64 92
64 93
64 95
64 96
64 98
64 99
64 100
64 101
64 102
64 103
64 105
64 106
64 107
64 108
64 109
64 110
64 111
64 113
64 114
64 115
64 117
64 119
64 120
64 122
64 123
64 125
64 126
64 127
64 128
65 68
65 73
65 74
65 76
65 78
65 79
65 80
65 87
65 88
65 90
65 91
65 97
65 99
65 100
65 101
65 102
65 105
65 108
65 109
65 110
65 114
65 117
65 121
65 125
65 128
66 67
66 68
66 69
66 70
66 71
66 73
66 74
66 75
66 76
66 78
66 79
66 82
66 83
66 84
66 86
66 88
66 89
66 90
66 91
66 92
66 93
66 94
66 96
66 97
66 99
66 100
66 101
66 102
66 105
66 107
66 108
66 109
66 110
66 111
66 113
66 114
66 115
66 116
66 117
66 118
66 122
66 123
66 125
66 126
66 127
66 128
67 68
67 70
67 71
67 72
67 73
67 74
67 75
67 76
67 79
67 80
67 84
67 88
67 89
67 90
67 91
67 92
67 95
67 96
67 98
67 99
67 100
67 102
67 103
67 106
67 107
67 108
67 109
67 110
67 111
67 114
67 115
67 117
67 119
67 120
67 122
67 123
67 126
67 127
67 128
68 69
68 70
68 71
68 73
68 74
68 75
68 76
68 78
68 79
68 80
68 82
68 83
68 84
68 86
68 88
68 89
68 90
68 91
68 92
68 93
68 94
68 96
68 97
68 98
68 99
68 100
68 101
68 102
68 103
68 105
68 107
68 108
68 109
68 110
68 111
68 113
68 114
68 115
68 116
68 117
68 118
68 122
68 123
68 125
68 126
68 127
68 128
69 70
69 71
69 73
69 74
69 75
69 76
69 78
69 79
69 82
69 83
69 84
69 86
69 88
69 91
69 92
69 93
69 94
69 96
69 99
69 100
69 101
69 107
69 108
69 110
69 111
69 113
69 114
69 115
69 116
69 118
69 122
69 123
69 125
69 126
69 127
69 128
70 71
70 72
70 75
70 76
70 79
70 80
70 84
70 88
70 89
70 90
70 91
70 92
70 93
70 95
70 96
70 98
70 99
70 100
70 102
70 103
70 106
70 107
70 108
70 109
70 110
70 111
70 113
70 114
70 115
70 119
70 120
70 122
70 123
70 126
70 127
70 128
71 75
71 76
71 84
71 86
71 88
71 89
71 91
71 92
71 93
71 94
71 95
71 96
71 98
71 99
71 103
71 106
71 107
71 108
71 110
71 111
71 113
71 115
71 116
71 122
71 123
71 126
71 127
71 128
72 79
72 80
72 90
72 98
72 102
72 103
72 108
72 109
72 110
72 112
72 119
72 120
72 122
73 74
73 75
73 76
73 78
73 79
73 80
73 83
73 88
73 90
73 91
73 92
73 94
73 97
73 99
73 100
73 101
73 102
73 105
73 107
73 108
73 109
73 110
73 113
73 114
73 115
73 116
73 117
73 121
73 122
73 123
73 125
73 126
73 127
73 128
74 76
74 78
74 79
74 80
74 87
74 88
74 90
74 91
74 92
74 97
74 98
74 99
74 100
74 101
74 102
74 103
74 105
74 108
74 109
74 110
74 114
74 115
74 117
74 120
74 121
74 123
74 125
74 126
74 128
75 76
75 79
75 82
75 83
75 84
75 86
75 88
75 89
75 91
75 92
75 93
75 94
75 95
75 96
75 99
75 100
75 101
75 106
75 107
75 108
75 110
75 111
75 113
75 114
75 115
75 116
75 118
75 122
75 123
75 126
75 127
75 128
76 78
76 79
76 80
76 82
76 83
76 84
76 86
76 88
76 89
76 90
76 91
76 92
76 93
76 94
76 95
76 96
76 97
76 98
76 99
76 100
76 101
76 102
76 103
76 105
76 107
76 108
76 109
76 110
76 111
76 113
76 114
76 115
76 116
76 117
76 118
76 122
76 123
76 125
76 126
76 127
76 128
77 87
77 104
77 112
77 124
78 79
78 80
78 83
78 88
78 90
78 91
78 92
78 97
78 98
78 99
78 100
78 101
78 102
78 105
78 107
78 108
78 109
78 110
78 114
78 115
78 117
78 121
78 123
78 125
78 126
78 128
79 80
79 83
79 87
79 88
79 90
79 91
79 92
79 97
79 98
79 99
79 100
79 101
79 102
79 103
79 105
79 107
79 108
79 109
79 110
79 114
79 115
79 117
79 119
79 120
79 121
79 122
79 123
79 125
79 126
79 128
80 87
80 88
80 90
80 91
80 92
80 97
80 98
80 99
80 100
80 101
80 102
80 103
80 105
80 108
80 109
80 110
80 114
80 117
80 119
80 120
80 122
80 125
80 128
81 85
81 87
81 104
81 124
82 83
82 84
82 86
82 88
82 91
82 92
82 93
82 94
82 96
82 99
82 107
82 111
82 113
82 115
82 116
82 118
82 123
82 126
82 127
82 128
83 84
83 86
83 88
83 91
83 92
83 93
83 94
83 96
83 99
83 100
83 101
83 107
83 108
83 110
83 111
83 113
83 114
83 115
83 116
83 118
83 123
83 125
83 126
83 127
83 128
84 86
84 88
84 89
84 91
84 92
84 93
84 94
84 95
84 96
84 99
84 106
84 107
84 111
84 113
84 115
84 116
84 118
84 122
84 123
84 126
84 127
84 128
85 104
85 124
86 88
86 91
86 92
86 93
86 94
86 96
86 99
86 107
86 111
86 113
86 115
86 116
86 118
86 123
86 126
86 127
87 90
87 97
87 102
87 104
87 105
87 112
87 117
87 121
87 124
88 89
88 90
88 91
88 92
88 93
88 94
88 96
88 97
88 98
88 99
88 100
88 101
88 102
88 103
88 105
88 107
88 108
88 109
88 110
88 111
88 113
88 114
88 115
88 116
88 117
88 118
88 122
88 123
88 125
88 126
88 127
88 128
89 91
89 92
89 93
89 95
89 96
89 98
89 103
89 106
89 107
89 108
89 110
89 111
89 113
89 115
89 116
89 119
89 122
89 123
89 126
89 127
89 128
90 91
90 92
90 97
90 98
90 99
90 100
90 101
90 102
90 103
90 105
90 107
90 108
90 109
90 110
90 114
90 115
90 117
90 119
90 120
90 121
90 122
90 123
90 125
90 126
90 128
91 92
91 93
91 94
91 96
91 97
91 98
91 99
91 100
91 101
91 102
91 105
91 107
91 108
91 109
91 110
91 111
91 113
91 114
91 115
91 116
91 117
91 118
91 122
91 123
91 125
91 126
91 127
91 128
92 93
92 94
92 96
92 97
92 98
92 99
92 100
92 101
92 102
92 105
92 107
92 108
92 109
92 110
92 111
92 113
92 114
92 115
92 116
92 117
92 118
92 122
92 123
92 125
92 126
92 127
92 128
93 94
93 95
93 96
93 99
93 100
93 106
93 107
93 111
93 113
93 115
93 116
93 118
93 122
93 123
93 126
93 127
93 128
94 96
94 99
94 100
94 101
94 107
94 110
94 111
94 113
94 114
94 115
94 116
94 118
94 123
94 126
94 127
94 128
95 96
95 106
95 107
95 111
95 122
95 127
96 99
96 106
96 107
96 108
96 110
96 111
96 113
96 115
96 116
96 118
96 122
96 123
96 126
96 127
96 128
97 98
97 99
97 100
97 101
97 102
97 105
97 108
97 109
97 110
97 114
97 117
97 121
97 125
97 128
98 100
98 102
98 103
98 105
98 108
98 109
98 110
98 112
98 114
98 117
98 119
98 120
98 122
98 125
98 128
99 100
99 101
99 102
99 105
99 107
99 108
99 109
99 110
99 111
99 113
99 114
99 115
99 116
99 117
99 118
99 122
99 123
99 125
99 126
99 127
99 128
100 101
100 102
100 105
100 107
100 108
100 109
100 110
100 113
100 114
100 115
100 116
100 117
100 121
100 122
100 123
100 125
100 126
100 127
100 128
101 102
101 105
101 107
101 108
101 109
101 110
101 113
101 114
101 115
101 117
101 121
101 123
101 125
101 126
101 128
102 103
102 105
102 107
102 108
102 109
102 110
102 114
102 117
102 119
102 120
102 121
102 122
102 123
102 125
102 126
102 128
103 105
103 108
103 109
103 110
103 114
103 117
103 119
103 120
103 122
103 128
104 124
105 108
105 109
105 110
105 114
105 115
105 117
105 121
105 123
105 125
105 126
105 128
106 107
106 111
106 122
106 127
107 108
107 109
107 110
107 111
107 113
107 114
107 115
107 116
107 118
107 122
107 123
107 126
107 127
107 128
108 109
108 110
108 113
108 114
108 115
108 117
108 119
108 120
108 122
108 123
108 125
108 126
108 127
108 128
109 110
109 114
109 117
109 119
109 120
109 122
109 123
109 125
109 126
109 128
110 113
110 114
110 115
110 117
110 119
110 120
110 122
110 123
110 125
110 126
110 127
110 128
111 113
111 115
111 116
111 118
111 122
111 123
111 126
111 127
111 128
112 120
112 124
113 114
113 115
113 116
113 118
113 122
113 123
113 126
113 127
113 128
114 115
114 117
114 121
114 122
114 123
114 125
114 126
114 127
114 128
115 116
115 117
115 118
115 122
115 123
115 125
115 126
115 127
115 128
116 118
116 123
116 126
116 127
116 128
117 120
117 121
117 123
117 125
117 126
117 128
118 123
118 126
118 127
119 120
119 122
120 122
121 125
122 123
122 126
122 127
122 128
123 125
123 126
123 127
123 128
125 126
125 128
126 127
126 128
127 128

